
Gurobi 11.0.2 (win64) logging started Wed Aug 14 11:16:15 2024

Set parameter LogFile to value "D:\Documenti\Scuola\Laurea magistrale unibs\laurea-unibs-mkfsp\output\2024-08-14T08_52_45.517425\logs\instance03_bucket7.log"
Set parameter TimeLimit to value 3.9113750270000037e+02
Set parameter MIPGap to value 0
Gurobi Optimizer version 11.0.2 build v11.0.2rc0 (win64 - Windows 10.0 (19045.2))

CPU model: Intel(R) Core(TM) i5-4670 CPU @ 3.40GHz, instruction set [SSE2|AVX|AVX2]
Thread count: 4 physical cores, 4 logical processors, using up to 4 threads

Optimize a model with 3364 rows, 17629 columns and 189153 nonzeros
Model fingerprint: 0x5c480247
Variable types: 0 continuous, 17629 integer (17492 binary)
Coefficient statistics:
  Matrix range     [1e+00, 8e+03]
  Objective range  [5e+02, 8e+03]
  Bounds range     [1e+00, 1e+00]
  RHS range        [1e+00, 7e+05]
Presolve time: 0.28s
Presolved: 3364 rows, 17629 columns, 189153 nonzeros
Variable types: 0 continuous, 17629 integer (17492 binary)
Deterministic concurrent LP optimizer: primal and dual simplex
Showing primal log only...

Concurrent spin time: 0.16s (can be avoided by choosing Method=3)

Solved with dual simplex

Root relaxation: objective 7.711754e+05, 2411 iterations, 0.78 seconds (0.80 work units)
Total elapsed time = 5.46s (DegenMoves)

    Nodes    |    Current Node    |     Objective Bounds      |     Work
 Expl Unexpl |  Obj  Depth IntInf | Incumbent    BestBd   Gap | It/Node Time

     0     0 771175.383    0 1125          - 771175.383      -     -    9s
     0     0 771113.088    0 1957          - 771113.088      -     -   13s
     0     0 771066.067    0 1401          - 771066.067      -     -   16s
     0     0 770922.731    0 1231          - 770922.731      -     -   17s
     0     0 770922.731    0 1217          - 770922.731      -     -   17s
     0     0 770922.731    0 1172          - 770922.731      -     -   18s
     0     0 770454.432    0  942          - 770454.432      -     -   48s
     0     0 770427.605    0 1152          - 770427.605      -     -   50s
     0     0 770388.005    0 1939          - 770388.005      -     -   59s
     0     0 770385.218    0 1221          - 770385.218      -     -   72s
     0     2 770385.218    0  864          - 770385.218      -     -  116s
     1     4 769097.328    1  951          - 770385.218      - 57391  120s
     7    12 764620.000    3  777          - 770385.218      -  9604  125s
    27    34 764620.000    7  750          - 770385.218      -  3043  130s
    62    70 764620.000   13  756          - 770385.218      -  1575  135s
   117   127 764620.000   22  856          - 770385.218      -   995  140s
   169   185 764620.000   29  855          - 770385.218      -   801  145s
   229   249 764620.000   47  836          - 770385.218      -   662  150s
   287   310 764620.000   55  881          - 770385.218      -   585  155s
   343   360 764620.000   64  917          - 770385.218      -   537  160s
   395   411 764620.000   70  949          - 770385.218      -   521  165s
   440   458 764620.000   78  906          - 770385.218      -   520  171s
   473   486 764620.000   88  921          - 770385.218      -   524  176s
   486   514 764620.000   89  912          - 770385.218      -   530  180s
   531   541 764620.000  101  920          - 770385.218      -   537  186s
   563   573 764620.000  105  946          - 770385.218      -   551  192s
   573   593 764620.000  106  888          - 770385.218      -   560  195s
   612   633 764620.000  114  896          - 770385.218      -   569  202s
   633   646 764620.000  124  912          - 770385.218      -   580  205s
   678   709 764620.000  126  923          - 770385.218      -   583  212s
   709   732 764620.000  132  860          - 770385.218      -   575  216s
   732   753 764620.000  139  924          - 770385.218      -   581  220s
   753   780 764620.000  144  878          - 770385.218      -   586  225s
   780   822 764620.000  151  889          - 770385.218      -   595  231s
   822   846 764620.000  157  882          - 770385.218      -   593  235s
   846   873 764620.000  160  917          - 770385.218      -   600  240s
   873   901 764620.000  164  822          - 770385.218      -   602  245s
   902   934 764620.000  174  860          - 770385.218      -   610  250s
   935   958 764620.000  179  839          - 770385.218      -   611  259s
   959  1005 764620.000  183  841          - 770385.218      -   606  265s
  1006  1044 764620.000  194  852          - 770385.218      -   603  270s
  1047  1091 764620.000  205  855          - 770385.218      -   600  277s
  1095  1128 764620.000  215  804          - 770385.218      -   598  283s
  1132  1185 764620.000  221  836          - 770385.218      -   606  290s
  1190  1216 764620.000  230  809          - 770385.218      -   599  297s
  1221  1258 764620.000  237  807          - 770385.218      -   608  305s
  1264  1301 764620.000  252  813          - 770385.218      -   614  311s
  1309  1347 764620.000  267  828          - 770385.218      -   619  320s
  1355  1398 764620.000  278  805          - 770385.218      -   622  327s
  1407  1450 764620.000  292  814          - 770385.218      -   623  335s
  1460  1501 764620.000  303  797          - 770385.218      -   624  344s
  1514  1565 764620.000  310  755          - 770385.218      -   626  352s
  1580  1613 764620.000  326  700          - 770385.218      -   623  361s
  1628  1667 764620.000  334  755          - 770385.218      -   628  370s
  1682  1728 764620.000  357  778          - 770385.218      -   633  380s
  1745  1779 764620.000  379  764          - 770385.218      -   634  389s
  1796  1790 764620.000  395  745          - 770385.218      -   640  391s

Cutting planes:
  Gomory: 2
  Cover: 881
  Clique: 248
  MIR: 390
  StrongCG: 4

Explored 1807 nodes (1339128 simplex iterations) in 391.16 seconds (580.87 work units)
Thread count was 4 (of 4 available processors)

Solution count 0

Time limit reached
Best objective -, best bound 7.703850000000e+05, gap -
